c Generated map
c Size: 8 * 8, weights in range: 1 to 10, walls: True, with ratio 0.1
c dim 9 of 9
c
p sp 64 90
c graph contains 64 nodes and 90 arcs
c
a 1 9 8
a 9 1 8
a 1 2 9
a 2 1 9
a 2 10 5
a 10 2 5
a 2 3 9
a 3 2 9
a 3 11 7
a 11 3 7
a 3 4 2
a 4 3 2
a 4 12 2
a 12 4 2
a 6 14 4
a 14 6 4
a 6 7 10
a 7 6 10
a 7 15 8
a 15 7 8
a 7 8 8
a 8 7 8
a 8 16 6
a 16 8 6
a 9 17 5
a 17 9 5
a 9 10 10
a 10 9 10
a 10 18 6
a 18 10 6
a 10 11 8
a 11 10 8
a 11 19 5
a 19 11 5
a 11 12 9
a 12 11 9
a 12 20 7
a 20 12 7
a 12 13 5
a 13 12 5
a 13 21 3
a 21 13 3
a 13 14 4
a 14 13 4
a 14 22 2
a 22 14 2
a 14 15 1
a 15 14 1
a 15 23 2
a 23 15 2
a 15 16 8
a 16 15 8
a 16 24 8
a 24 16 8
a 17 25 5
a 25 17 5
a 17 18 8
a 18 17 8
a 18 26 2
a 26 18 2
a 18 19 6
a 19 18 6
a 19 27 7
a 27 19 7
a 19 20 10
a 20 19 10
a 20 21 8
a 21 20 8
a 21 29 3
a 29 21 3
a 21 22 5
a 22 21 5
a 22 30 2
a 30 22 2
a 22 23 4
a 23 22 4
a 23 31 4
a 31 23 4
a 23 24 5
a 24 23 5
a 24 32 5
a 32 24 5
a 25 33 4
a 33 25 4
a 25 26 4
a 26 25 4
a 26 34 3
a 34 26 3
a 26 27 1
a 27 26 1
a 27 35 2
a 35 27 2
a 29 37 6
a 37 29 6
a 29 30 10
a 30 29 10
a 30 38 1
a 38 30 1
a 30 31 5
a 31 30 5
a 31 39 10
a 39 31 10
a 31 32 8
a 32 31 8
a 32 40 7
a 40 32 7
a 33 41 9
a 41 33 9
a 33 34 9
a 34 33 9
a 34 35 10
a 35 34 10
a 35 43 7
a 43 35 7
a 35 36 6
a 36 35 6
a 36 44 7
a 44 36 7
a 36 37 8
a 37 36 8
a 37 38 5
a 38 37 5
a 38 46 6
a 46 38 6
a 38 39 4
a 39 38 4
a 39 47 6
a 47 39 6
a 39 40 7
a 40 39 7
a 40 48 6
a 48 40 6
a 41 49 3
a 49 41 3
a 43 51 3
a 51 43 3
a 43 44 2
a 44 43 2
a 44 52 6
a 52 44 6
a 46 54 2
a 54 46 2
a 46 47 3
a 47 46 3
a 47 48 1
a 48 47 1
a 48 56 10
a 56 48 10
a 49 57 2
a 57 49 2
a 49 50 9
a 50 49 9
a 50 58 8
a 58 50 8
a 50 51 4
a 51 50 4
a 51 52 2
a 52 51 2
a 52 60 2
a 60 52 2
a 52 53 2
a 53 52 2
a 53 61 6
a 61 53 6
a 53 54 9
a 54 53 9
a 54 62 6
a 62 54 6
a 56 64 1
a 64 56 1
a 57 58 8
a 58 57 8
a 60 61 7
a 61 60 7
a 61 62 5
a 62 61 5
a 62 63 1
a 63 62 1
a 63 64 3
a 64 63 3
